; benchmark generated from python API
(set-info :status unknown)
(declare-fun S_4 () Real)
(declare-fun C () Real)
(declare-fun A_1 () Real)
(declare-fun L_1 () Real)
(declare-fun S_2 () Real)
(declare-fun S_5 () Real)
(declare-fun A_3 () Real)
(declare-fun L_3 () Real)
(declare-fun S_3 () Real)
(declare-fun L_2 () Real)
(declare-fun A_2 () Real)
(declare-fun S_0 () Real)
(declare-fun S_1 () Real)
(declare-fun L_0 () Real)
(declare-fun A_0 () Real)
(declare-fun A_4 () Real)
(declare-fun A_5 () Real)
(assert
 (let (($x39 (>= L_0 0.0)))
 (let (($x806 (>= C 5.0)))
 (let (($x16760 (<= 0.0 (+ S_5 (* (- 2.0) C) (* (- 1.0) A_2) L_2))))
 (let (($x16660 (<= 0.0 (+ S_5 L_3 (* (- 1.0) A_3) (* (- 1.0) C)))))
 (let (($x1544 (<= (+ (* (- 1.0) S_5) (* (- 1.0) L_1) A_1 (* 3.0 C)) 0.0)))
 (let (($x18341 (or $x1544 (<= (+ (* (- 1.0) S_5) (* 4.0 C) S_0) 0.0) $x16660 $x16760)))
 (let (($x5293 (<= (+ (* (- 1.0) L_3) A_3 (* (- 1.0) S_4)) 0.0)))
 (let (($x1686 (<= (+ (* (- 1.0) L_1) A_1 (* 2.0 C) (* (- 1.0) S_4)) 0.0)))
 (let (($x1066 (<= (+ A_2 (* (- 1.0) L_2) C (* (- 1.0) S_4)) 0.0)))
 (let (($x18338 (or $x1066 $x1686 (<= (+ (* 3.0 C) (* (- 1.0) S_4) S_0) 0.0) $x5293)))
 (let (($x17113 (not (<= 0.0 (+ C (* (- 1.0) A_1) S_0 L_1)))))
 (let ((?x295 (* (- 1.0) L_2)))
 (let ((?x443 (* (- 1.0) A_3)))
 (let ((?x3255 (+ L_3 ?x443 A_2 ?x295 C)))
 (let (($x16791 (<= ?x3255 (- 5.0))))
 (let (($x515 (<= 0.0 (+ (* (- 1.0) L_1) A_1 C (* (- 1.0) A_2) L_2))))
 (let (($x513 (not $x515)))
 (let (($x76 (= L_3 L_2)))
 (let ((?x1152 (* 2.0 C)))
 (let ((?x278 (* (- 1.0) L_1)))
 (let ((?x1730 (+ L_3 ?x443 ?x278 A_1 ?x1152)))
 (let (($x17174 (<= ?x1730 (- 5.0))))
 (let ((?x440 (* (- 1.0) A_2)))
 (let ((?x2246 (+ ?x1152 ?x440 S_0 L_2)))
 (let (($x16753 (<= 0.0 ?x2246)))
 (let (($x66 (= L_2 L_1)))
 (let (($x20265 (or $x66 (not (<= 0.0 (+ S_5 L_3 ?x443 ?x440 A_1 ?x278 L_2))) (not (<= 0.0 (+ S_5 L_3 ?x443 C ?x440 S_0 L_2))))))
 (let (($x18065 (or $x66 (<= ?x2246 (- 5.0)) (<= (+ ?x440 A_1 ?x278 C L_2) (- 5.0)))))
 (let (($x18031 (not (<= 0.0 (+ S_5 L_3 ?x443 (* (- 1.0) C) ?x440 S_2 L_2)))))
 (let (($x1717 (<= (+ ?x278 A_1 C (* (- 1.0) S_3)) 0.0)))
 (let (($x17639 (<= 0.0 (+ S_5 ?x440 L_2 (* (- 1.0) C) (* (- 1.0) A_1) S_0 L_1))))
 (let (($x56 (= L_1 L_0)))
 (let (($x17274 (<= 0.0 (+ S_5 L_3 ?x443 (* (- 2.0) C) (* (- 1.0) A_1) S_2 L_1))))
 (let (($x19692 (or $x56 (not (<= 0.0 (+ S_5 L_3 ?x443 (* (- 1.0) A_1) S_0 L_1))))))
 (let (($x19939 (or $x56 (<= (+ (* (- 3.0) C) (* (- 1.0) A_1) S_4 L_1) (- 5.0)))))
 (let (($x16922 (<= 0.0 (+ (* (- 1.0) L_3) A_3 (* (- 2.0) C) (* (- 1.0) A_1) L_1))))
 (let ((?x2325 (+ L_3 ?x443 C S_2)))
 (let (($x16794 (<= 0.0 ?x2325)))
 (let (($x30291 (or $x56 (<= (+ (* (- 1.0) C) (* (- 1.0) A_1) S_2 L_1) (- 5.0)))))
 (let (($x3745 (<= (+ L_3 ?x443 A_2 ?x295 C A_1 (* (- 1.0) S_2) ?x278) 0.0)))
 (let (($x3250 (<= (+ A_2 ?x295 (* (- 1.0) S_3)) 0.0)))
 (let (($x16754 (not $x16753)))
 (let (($x30817 (or $x76 $x16754 $x16791 (<= 0.0 (+ A_2 ?x295 (* (- 1.0) C) (* (- 1.0) A_1) L_1)))))
 (let (($x3740 (<= (+ (* (- 1.0) L_3) A_3 ?x440 L_2 (* (- 1.0) A_1) S_0 L_1) 0.0)))
 (let (($x6794 (or (<= (+ ?x278 A_1 (* (- 1.0) S_2)) 0.0) (<= (+ C (* (- 1.0) S_2) S_0) 0.0))))
 (let (($x17068 (<= 0.0 (+ S_5 ?x440 L_2 (* (- 2.0) C) (* (- 1.0) A_1) S_1 L_1))))
 (let (($x17019 (<= 0.0 (+ S_5 L_3 ?x443 (* (- 1.0) C) (* (- 1.0) A_1) S_1 L_1))))
 (let ((?x1295 (* (- 1.0) S_0)))
 (let ((?x353 (* (- 1.0) C)))
 (let (($x30519 (or $x76 (<= (+ L_3 ?x443 A_2 ?x295 ?x353 A_1 ?x1295 ?x278) 0.0) $x16922)))
 (let (($x3689 (<= (+ L_3 ?x443 A_2 ?x295 A_1 (* (- 1.0) A_0) ?x278 L_0) 0.0)))
 (let ((?x438 (* (- 1.0) A_1)))
 (let ((?x312 (* (- 1.0) L_3)))
 (let (($x30387 (or $x56 (<= (+ ?x312 A_3 ?x440 L_2 ?x353 ?x438 S_1 L_1) 0.0))))
 (let (($x30401 (or $x76 (<= (+ L_3 ?x443 A_2 ?x295 A_1 (* (- 1.0) S_1) ?x278) 0.0) $x16922)))
 (let (($x16921 (or $x16660 $x16760 (<= (+ (* (- 1.0) S_5) (* 3.0 C) S_1) 0.0))))
 (let (($x16850 (or (<= (+ ?x278 A_1 ?x353 (* (- 1.0) A_0) L_0) 0.0) (not (<= 0.0 (+ ?x438 S_1 L_1))))))
 (let (($x128 (>= S_1 S_0)))
 (let (($x131 (>= S_2 S_1)))
 (let (($x134 (>= S_3 S_2)))
 (let (($x137 (>= S_4 S_3)))
 (let (($x140 (>= S_5 S_4)))
 (let (($x142 (>= A_1 A_0)))
 (let (($x143 (>= A_2 A_1)))
 (let (($x144 (>= A_3 A_2)))
 (let (($x146 (>= A_5 A_4)))
 (and (<= (+ A_3 ?x312) S_5) $x146 $x144 $x143 $x142 $x140 $x137 $x134 $x131 $x128 (or (not (<= 0.0 (+ ?x278 L_0))) $x56) (or $x56 $x66 (= (+ ?x440 A_1 C ?x278 L_2) 0.0)) (or $x56 $x515) (or $x76 (not (<= 0.0 (+ ?x312 L_2)))) (or $x56 (<= 0.0 ?x1730)) (or $x66 (not (<= 0.0 (+ L_1 ?x295)))) (or $x66 (<= (+ ?x440 S_2 L_2) (- 5.0))) (or $x76 (<= (+ L_3 ?x443 ?x353 S_4) (- 5.0))) (or $x76 (<= ?x2325 (- 5.0))) (or $x76 (not $x16660)) (or $x76 (<= ?x3255 0.0)) (or $x66 (<= 0.0 ?x3255)) (or $x66 $x513 (= (+ ?x440 A_1 C ?x278 L_2) 0.0)) (or $x16660 (<= (+ (* (- 1.0) S_5) ?x1152 S_2) 0.0)) (or $x66 (<= (+ ?x353 ?x440 S_3 L_2) (- 5.0))) (or $x66 (not $x16760)) (or $x76 (<= (+ L_3 ?x443 S_3) (- 5.0))) $x16850 (<= (+ ?x353 (* (- 1.0) A_0) S_1 L_0) 0.0) (or $x66 (<= (+ C ?x440 S_1 L_2) (- 5.0))) (or $x56 (<= (+ ?x438 (* (- 2.0) C) S_3 L_1) (- 5.0))) $x16921 (or $x76 $x16760 $x16922) (or $x76 $x16791 $x16922) $x30401 (or $x56 (<= (+ ?x438 S_1 L_1) (- 5.0))) $x30387 (or $x76 $x3689 $x16922) $x30519 (or $x56 (not $x17019)) (or $x56 (not $x1544)) (or $x56 (not $x17068)) (or $x66 (not (<= 0.0 (+ S_5 L_3 ?x443 ?x440 S_1 L_2)))) $x6794 (or $x56 (<= (+ C ?x438 S_0 L_1) (- 5.0))) (or $x56 $x3740) (or $x1717 $x3250 $x16754) $x30817 (or $x3250 (<= (+ C (* (- 1.0) S_3) S_1) 0.0)) (or $x76 $x3250 $x16922) (or $x76 $x3745 $x16922) (<= (+ (* (- 1.0) A_0) (* (- 2.0) C) S_2 L_0) 0.0) (or $x5293 (not $x16794)) $x30291 (<= (+ (* (- 2.0) C) S_2 (* (- 1.0) S_1)) 0.0) (or $x16794 (<= (+ (* (- 1.0) S_4) C S_2) 0.0)) (<= (+ (* (- 2.0) C) S_4 (* (- 1.0) S_3)) 0.0) (or $x76 $x1066 $x16922) (<= (+ (* (- 4.0) C) S_4 (* (- 1.0) S_1)) 0.0) (<= (+ (* (- 2.0) C) S_3 (* (- 1.0) S_2)) 0.0) (<= (+ (* (- 3.0) C) S_4 (* (- 1.0) S_2)) 0.0) (<= (+ (* (- 2.0) C) ?x440 S_4 L_2) 0.0) $x19939 (<= (+ (* (- 4.0) C) (* (- 1.0) A_0) S_4 L_0) 0.0) (or $x1066 (<= (+ ?x1152 (* (- 1.0) S_4) S_1) 0.0) $x5293) $x19692 (<= (+ S_5 (* (- 4.0) C) (* (- 1.0) S_2)) 0.0) (or $x56 (not $x17274)) (or $x56 (not $x17639)) (or $x1717 (<= (+ ?x1152 (* (- 1.0) S_3) S_0) 0.0) $x16753) (<= (+ S_5 ?x440 L_2 (* (- 3.0) C)) 0.0) (<= (+ S_5 (* (- 6.0) C) ?x1295) 0.0) (<= (+ S_5 (* (- 5.0) C) (* (- 1.0) A_0) L_0) 0.0) (or $x66 $x18031) (or $x66 (<= (+ (* (- 2.0) C) ?x440 S_4 L_2) (- 5.0))) $x18065 $x20265 (<= (+ (* (- 3.0) C) S_2 ?x1295) 0.0) (or $x76 $x16791 (<= (+ L_3 ?x443 ?x1152 S_1) (- 5.0))) (or $x76 (<= (+ L_3 ?x443 (* 3.0 C) S_0) (- 5.0)) $x16753 $x17174) (or $x76 $x515 $x17113 $x17174) (or $x76 $x513 $x16791 $x17113) (<= (+ (* (- 4.0) C) S_3 ?x1295) 0.0) (<= (+ S_5 (* (- 5.0) C) (* (- 1.0) S_1)) 0.0) $x18338 $x18341 (<= (+ (* (- 5.0) C) S_4 ?x1295) 0.0) $x806 $x39 (<= (+ (* (- 1.0) S_5) C S_3) 0.0) (not (>= (+ S_5 L_3 (* (- 1.0) A_4)) 0.0)) (<= (+ ?x438 (* (- 2.0) C) S_3 L_1) 0.0) (<= (+ (* (- 1.0) A_0) S_0 L_0) 0.0) (<= (+ L_1 ?x438 S_1) 0.0) (<= (+ (* (- 1.0) A_0) (* (- 3.0) C) S_3 L_0) 0.0) (<= (+ (* (- 3.0) C) S_3 (* (- 1.0) S_1)) 0.0) (<= (+ L_3 ?x443 S_3) 0.0) (<= (+ (* (- 2.0) C) S_1 ?x1295) 0.0) (<= (+ ?x440 S_2 L_2) 0.0) (<= (+ ?x440 L_2 ?x353 S_3) 0.0) (<= (+ S_5 (* (- 2.0) C) (* (- 1.0) S_4)) 0.0) (<= (+ L_3 ?x443 ?x353 S_4) 0.0) (<= (+ S_5 (* (- 3.0) C) (* (- 1.0) S_3)) 0.0) (<= (+ S_5 L_3 ?x443 (* (- 2.0) C)) 0.0) (<= (+ S_5 L_1 ?x438 (* (- 4.0) C)) 0.0) (<= (+ L_1 ?x438 ?x353 S_2) 0.0) (<= (+ L_1 ?x438 (* (- 3.0) C) S_4) 0.0)))))))))))))))))))))))))))))))))))))))))))))))))))))))))))))))))))))
(check-sat)
